    1000
      98
     694         1
     690         1
     689         1
     688         1
     686         1
     663         1
     658         1
     651         1
     633         1
     629         1
     625         1
     622         1
     616         2
     613         1
     609         1
     607         1
     597         1
     590         1
     579         1
     576         1
     563         2
     562         1
     560         1
     543         1
     530         1
     528         1
     526         2
     498         1
     494         1
     490         1
     489         1
     488         1
     482         1
     477         1
     476         1
     471         1
     468         1
     462         1
     461         1
     459         1
     442         1
     434         1
     429         1
     415         1
     381         1
     374         1
     368         1
     361         1
     350         1
     347         1
     340         1
     333         1
     328         1
     326         1
     319         1
     317         1
     307         1
     303         1
     300         2
     291         1
     282         1
     275         2
     273         1
     272         1
     248         1
     246         1
     245         1
     240         1
     235         1
     234         1
     225         1
     223         1
     220         2
     210         1
     207         1
     195         1
     189         1
     185         1
     184         1
     170         1
     164         2
     159         1
     157         2
     155         1
     127         1
     113         2
     108         1
     107         2
     104         1
      87         1
      50         1
      49         1
      47         1
      37         1
      33         1
      31         1
      23         1
      18         1
